c ---- [ banner ] ------------------------------------------------------------
c
c Kissat SAT Solver
c 
c Copyright (c) 2021-2023 Armin Biere University of Freiburg
c Copyright (c) 2019-2021 Armin Biere Johannes Kepler University Linz
c 
c Version 3.1.1 unknown
c gcc (Ubuntu 9.4.0-1ubuntu1~20.04.2) 9.4.0 -W -Wall -O3 -DNDEBUG
c Mon Feb 26 18:18:52 CET 2024 Linux OptiPlex-7080 5.15.0-88-generic x86_64
c
c ---- [ parsing ] -----------------------------------------------------------
c
c opened and reading DIMACS file:
c
c   /home/oliveras/SAT-comp-2023//558113ad4d50130351db8c426230a50f-asconhashv12_opt64_H9_M2-wNfQskE8G_m1_6_U0.c.cnf
c
c parsed 'p cnf 158758 373505' header
c closing input after reading 7873431 bytes (8 MB)
c finished parsing after 0.12 seconds
c
c ---- [ options ] -----------------------------------------------------------
c
c --seed=1                         (different from default '0')
c
c ---- [ solving ] -----------------------------------------------------------
c
c  seconds switched conflicts    irredundant  variables
c         MB reductions redundant        trail     remaining
c          level restarts    binary         glue
c
c *  0.12 31 0 0 0  0   0   0 39650 333140 0% 0 97074 61%
c {  0.12 31 0 0 0  0   0   0 39650 333140 0% 0 97074 61%
c i  0.12 31 5 0 0  0   1   0 39650 333140 0% 0 97064 61%
c i  0.13 31 265 0 0  1 252 161 39654 333140 1% 32 97062 61%
c i  0.13 31 265 0 0  1 260 165 39657 333140 1% 30 97060 61%
c i  0.13 31 265 0 0  1 264 166 39659 333140 1% 30 97054 61%
c i  0.13 31 265 0 0  1 266 166 39660 333140 1% 29 97044 61%
c i  0.13 33 274 0 0  7 621 391 39701 333140 1% 28 97043 61%
c i  0.13 33 281 0 0  7 624 392 39702 333140 1% 27 97042 61%
c i  0.14 33 338 0 0  7 650 405 39708 333140 1% 26 97041 61%
c i  0.14 33 412 0 0  7 743 477 39717 333140 1% 23 97040 61%
c i  0.14 33 424 0 0  7 785 512 39720 333139 1% 22 97039 61%
c -  0.17 33 443 0 1  7 1001 304 37477 333138 2% 19 97039 61%
c }  0.17 33 443 1 1  7 1001 304 37477 333138 2% 19 97039 61%
c [  0.17 33 0 1 1  7 1001 304 37477 333138 0% 0 97039 61%
c B  0.17 33 0 1 1  7 1001 304 37477 333138 0% 0 97039 61%
c -  0.21 33 333 1 2  7 2003 461 37505 333138 3% 12 97039 61%
c W  0.26 37 333 1 2  7 2003 461 37505 331882 3% 12 97039 61%
c i  0.26 37 332 1 2  7 2014 469 37507 331882 3% 11 97037 61%
c ]  0.29 37 319 2 2  8 2583 942 37524 331882 3% 13 97037 61%
c
c  seconds   switched conflicts     irredundant   variables
c         MB  reductions  redundant         trail      remaining
c           level restarts      binary          glue
c
c {  0.29 37 443 2 2  8 2583 942 37524 331882 2% 19 97037 61%
c i  0.29 37 445 2 2  8 2587 945 37524 331882 2% 19 97036 61%
c i  0.29 37 447 2 2  8 2588 945 37524 331882 2% 19 97035 61%
c i  0.30 37 479 2 2  8 2628 974 37530 331882 2% 18 97034 61%
c i  0.30 37 492 2 2  8 2692 1030 37531 331882 2% 17 97032 61%
c i  0.34 37 509 2 2  8 2953 1275 37532 331882 3% 15 97030 61%
c d  0.38 39 506 2 2  8 3106 1417 38466 330843 3% 14 96997 61%
c u  0.41 39 506 2 2  8 3106 1413 38470 330843 3% 14 96997 61%
c v  0.43 39 506 2 2  8 3106 1413 38470 330843 3% 14 96997 61%
c w  0.51 41 506 2 2  8 3106 1458 38619 330413 3% 14 96873 61%
c =  0.55 43 506 2 2  8 3106 1458 39548 330070 3% 14 96411 61%
c d  0.57 43 506 2 2  8 3106 1438 37781 330036 3% 14 96184 61%
c t  0.58 43 506 2 2  8 3106 1438 37690 330036 3% 14 96184 61%
c i  0.59 43 506 2 2  8 3106 1438 37690 330036 3% 14 96184 61%
c -  0.61 43 553 2 3  8 3419 1088 37459 330035 3% 13 96184 61%
c }  0.62 43 554 3 3  8 3585 1239 37459 330035 3% 12 96184 61%
c [  0.62 43 319 3 3  8 3585 1239 37459 330035 3% 13 96184 61%
c I  0.65 43 487 3 3  8 4262 1799 37492 330035 3% 12 96184 61%
c -  0.69 43 428 3 4  9 5151 1914 37517 330035 3% 13 96184 61%
c d  0.76 43 389 3 4 10 6203 2879 37511 330035 3% 17 96172 61%
c
c  seconds   switched conflicts      irredundant   variables
c         MB  reductions  redundant          trail      remaining
c           level restarts       binary          glue
c
c u  0.78 43 389 3 4 10 6203 2860 37530 330035 3% 17 96172 61%
c v  0.80 43 389 3 4 10 6203 2860 37530 330035 3% 17 96172 61%
c w  0.88 43 389 3 4 10 6203 2916 37564 329945 3% 17 96172 61%
c =  0.92 43 389 3 4 10 6203 2916 37574 329945 3% 17 96167 61%
c d  0.93 43 389 3 4 10 6203 2916 37564 329945 3% 17 96167 61%
c t  0.95 43 389 3 4 10 6203 2916 37535 329945 3% 17 96167 61%
c ]  0.96 43 381 4 4 10 6724 3278 37535 329945 3% 17 96167 61%
c {  0.96 43 554 4 4 10 6724 3278 37535 329945 3% 12 96167 61%
c i  0.97 43 550 4 4 16 6815 3335 37540 329945 3% 12 96166 61%
c -  2.26 43 489 4 5 16 7152 2404 37536 329945 6% 12 96166 61%
c }  7.43 43 504 5 5 17 9076 4239 37549 329945 12% 11 96166 61%
c [  7.43 43 381 5 5 17 9076 4239 37549 329945 3% 17 96166 61%
c B  7.43 43 381 5 5 17 9076 4239 37549 329945 3% 17 96166 61%
c -  7.45 43 375 5 6 17 9388 2795 37552 329945 3% 17 96166 61%
c -  7.56 43 367 5 7 19 11837 2809 37558 329945 4% 21 96166 61%
c u  7.62 43 372 5 7 19 12645 3433 37571 329929 4% 22 96166 61%
c v  7.66 43 372 5 7 19 12645 3428 37576 329929 4% 22 96166 61%
c w  7.85 43 372 5 7 19 12645 3870 37840 329223 4% 22 96166 61%
c =  8.07 43 372 5 7 19 12645 3870 38018 329030 4% 22 96094 61%
c d  8.08 43 372 5 7 19 12645 3864 37959 328727 4% 22 96091 61%
c
c  seconds   switched conflicts       irredundant   variables
c         MB  reductions   redundant          trail      remaining
c           level restarts        binary          glue
c
c d  8.09 43 372 5 7 19 12645 3864 37855 328727 4% 22 96039 60%
c t  8.11 43 372 5 7 19 12645 3864 37765 328727 4% 22 96039 60%
c -  8.75 45 376 5 8 20 14482 3484 37780 328727 5% 25 96039 60%
c W  8.91 47 377 5 8 20 14607 3587 37783 328727 5% 25 96039 60%
c s  9.16 47 377 5 8 21 15521 4405 38371 328142 5% 29 96039 60%
c e  9.53 53 377 5 8 21 15521 4405 363 342905 5% 29 57836 36%
c 2  9.53 53 377 5 8 21 15521 4405 362 342905 5% 29 57836 36%
c s  9.60 55 377 5 8 21 15521 4405 370 342045 5% 29 57836 36%
c e  9.62 55 377 5 8 21 15521 4405 363 342051 5% 29 57826 36%
c ^  9.62 55 377 5 8 21 15521 4405 363 342051 5% 29 57826 36%
c -  9.78 49 373 5 9 22 17310 1999 363 342051 5% 36 57826 36%
c - 10.03 51 366 5 10 23 20312 2622 363 342051 4% 50 57826 36%
c O 10.24 51 361 5 10 23 22136 4395 363 342051 4% 55 57826 36%
c u 10.30 51 361 5 10 23 22644 4801 370 342051 4% 54 57826 36%
c v 10.31 51 361 5 10 23 22644 4801 370 342051 4% 54 57826 36%
c w 10.47 53 361 5 10 23 22644 5248 374 341600 4% 54 57826 36%
c = 10.59 53 361 5 10 23 22644 5248 384 341600 4% 54 57821 36%
c d 10.61 53 361 5 10 23 22644 5248 374 341600 4% 54 57821 36%
c t 10.63 53 361 5 10 23 22644 5248 361 341600 4% 54 57821 36%
c - 10.66 53 357 5 11 24 23474 3499 363 341600 4% 53 57821 36%
c
c  seconds   switched  conflicts     irredundant   variables
c         MB   reductions   redundant        trail      remaining
c           level  restarts       binary         glue
c
c - 10.84 53 348 5 12 26 26791 4292 363 341600 4% 51 57821 36%
c - 11.04 53 348 5 13 29 30256 4717 364 341600 4% 48 57821 36%
c s 11.06 53 349 5 13 29 30836 5183 369 341570 4% 47 57821 36%
c e 11.30 53 349 5 13 29 30836 5183  97 341962 4% 47 57691 36%
c s 11.30 53 349 5 13 29 30836 5183  99 341950 4% 47 57691 36%
c ^ 11.32 53 349 5 13 29 30836 5183  99 341950 4% 47 57691 36%
c B 11.36 53 353 5 13 29 31897 5766  99 341950 4% 46 57691 36%
c ] 16.06 55 336 6 13 30 33107 6949 102 341948 6% 44 57691 36%
c { 16.06 55 504 6 13 30 33107 6949 102 341948 12% 11 57691 36%
c - 19.52 55 426 6 14 30 33861 4630 102 341948 16% 10 57691 36%
c u 30.49 55 327 6 14 37 36272 6998 107 341947 22% 10 57691 36%
c v 30.57 55 327 6 14 37 36272 6998 107 341947 22% 10 57691 36%
c w 30.81 55 327 6 14 37 36272 7080 110 341862 22% 10 57691 36%
c = 31.10 55 327 6 14 37 36272 7080 602 340966 22% 10 57371 36%
c d 31.12 55 327 6 14 37 36272 7080 216 340838 22% 10 57371 36%
c t 31.14 55 327 6 14 37 36272 7080 215 340838 22% 10 57371 36%
c } 31.54 55 368 7 14 70 37176 7917 217 340838 20% 10 57371 36%
c [ 31.54 55 336 7 14 70 37176 7917 217 340838 6% 44 57371 36%
c - 31.59 55 343 7 15 70 37602 5089 109 340838 6% 43 57371 36%
c ] 45.54 55 310 8 15 73 41443 8881 115 340834 9% 38 57371 36%
c
c  seconds   switched  conflicts     irredundant    variables
c         MB   reductions   redundant         trail      remaining
c           level  restarts       binary          glue
c
c { 45.54 55 368 8 15 73 41443 8881 115 340834 20% 10 57371 36%
c - 45.60 55 368 8 16 73 41474 5200 115 340834 20% 10 57371 36%
c - 64.96 57 251 8 17 166 45474 5347 119 340831 25% 9 57371 36%
c } 72.52 57 274 9 17 388 47602 7416 125 340828 26% 9 57371 36%
c [ 72.52 57 310 9 17 388 47602 7416 125 340828 9% 38 57371 36%
c W 73.43 58 310 9 17 388 47602 7416 125 340828 9% 38 57371 36%
c - 82.84 58 289 9 18 389 49598 5574 125 340828 11% 36 57371 36%
c ] 98.78 58 256 10 18 392 53204 9161 127 340826 14% 33 57371 36%
c { 98.78 58 274 10 18 392 53204 9161 127 340826 26% 9 57371 36%
c u 99.96 58 264 10 18 392 53812 9748 131 340826 25% 9 57371 36%
c v 100.10 58 264 10 18 392 53812 9748 131 340826 25% 9 57371 36%
c w 100.34 58 264 10 18 392 53812 10397 148 340160 25% 9 57371 36%
c t 100.60 58 264 10 18 392 53812 10397 137 340160 25% 9 57371 36%
c - 100.76 58 264 10 19 402 53841 6367 137 340160 25% 9 57371 36%
c - 101.58 58 307 10 20 432 58199 7626 141 340159 20% 9 57371 36%
c } 113.20 58 308 11 20 834 61831 11171 142 340158 21% 9 57371 36%
c [ 113.20 58 256 11 20 834 61831 11171 142 340158 14% 33 57371 36%
c I 116.27 58 251 11 20 834 62506 11840 142 340158 14% 32 57371 36%
c - 117.01 58 250 11 21 834 62673 8390 142 340158 14% 32 57371 36%
c s 122.98 58 239 11 21 836 64034 9745 149 340139 15% 31 57371 36%
c
c  seconds     switched   conflicts     irredundant    variables
c          MB    reductions    redundant         trail      remaining
c            level   restarts        binary          glue
c
c e 123.41 48 239 11 21 836 64034 9745 144 355335 15% 31 49709 31%
c s 123.49 48 239 11 21 836 64034 9745 146 354729 15% 31 49709 31%
c ^ 123.51 48 239 11 21 836 64034 9745 146 354729 15% 31 49709 31%
c ] 126.56 52 235 12 21 836 64712 8270 147 354728 16% 31 49709 31%
c { 126.56 52 308 12 21 836 64712 8270 147 354728 21% 9 49709 31%
c - 136.63 51 284 12 22 912 67256 6748 148 354727 22% 9 49709 31%
c - 156.23 52 261 12 23 1306 71946 7233 153 354724 23% 9 49709 31%
c u 173.22 53 239 12 23 1376 75386 10655 161 354720 25% 9 49709 31%
c v 173.60 53 239 12 23 1376 75386 10655 161 354720 25% 9 49709 31%
c w 173.90 55 239 12 23 1376 75386 12135 169 353232 25% 9 49709 31%
c t 173.98 55 239 12 23 1376 75386 12135 162 353232 25% 9 49709 31%
c } 177.76 55 235 13 23 1580 76192 12927 163 353231 25% 9 49709 31%
c [ 177.76 55 235 13 23 1580 76192 12927 163 353231 16% 31 49709 31%
c - 180.24 55 231 13 24 1580 76741 9644 163 353231 16% 30 49709 31%
c B 193.86 55 209 13 24 1582 80308 13191 163 353231 17% 28 49709 31%
c - 199.76 55 202 13 25 1584 81639 10177 163 353231 18% 28 49709 31%
c - 221.80 57 178 13 26 1586 86639 10223 164 353230 20% 25 49709 31%
c ] 225.44 57 174 14 26 1586 87476 11057 164 353230 20% 25 49709 31%
c { 225.44 57 235 14 26 1586 87476 11057 164 353230 25% 9 49709 31%
c - 243.83 57 212 14 27 1643 91739 10908 166 353228 26% 9 49709 31%
c
c  seconds     switched    conflicts      irredundant   variables
c          MB    reductions      redundant         trail     remaining
c            level    restarts         binary         glue
c
c - 264.84 57 189 14 28 1680 96936 12110 170 353225 27% 8 49709 31%
c i 276.04 57 177 14 28 1680 99528 14670 182 353225 27% 8 49708 31%
c u 282.67 57 176 14 28 1735 101305 11565 987 353194 27% 8 49708 31%
c v 282.79 57 176 14 28 1735 101305 10437 2115 353194 27% 8 49708 31%
c w 283.08 57 176 14 28 1735 101305 10484 2149 353113 27% 8 49708 31%
c = 283.17 57 176 14 28 1735 101305 10484 2165 353113 27% 8 49700 31%
c d 283.19 57 176 14 28 1735 101305 10484 2131 353113 27% 8 49700 31%
c t 283.21 57 176 14 28 1735 101305 10484 199 353113 27% 8 49700 31%
c } 287.32 57 172 15 28 1765 102192 11369 199 353113 27% 8 49700 31%
c [ 287.32 57 174 15 28 1765 102192 11369 199 353113 20% 25 49700 31%
c W 289.25 59 174 15 28 1765 102192 11369 183 353113 20% 25 49700 31%
c - 289.34 59 174 15 29 1765 102228 9032 183 353113 20% 25 49700 31%
c - 311.64 59 154 15 30 1769 107613 10288 183 353113 22% 23 49700 31%
c i 331.48 59 138 15 30 1771 112846 15469 191 353112 23% 21 49697 31%
c - 332.59 59 137 15 31 1771 113091 8542 186 353112 23% 21 49697 31%
c ] 345.77 59 129 16 31 1773 116179 11608 188 353111 24% 20 49697 31%
c { 345.77 59 172 16 31 1773 116179 11608 188 353111 27% 8 49697 31%
c i 347.96 59 170 16 31 1773 116696 12112 194 353111 27% 8 49690 31%
c s 353.22 59 166 16 31 1773 117816 13227 205 352701 28% 8 49690 31%
c e 353.71 59 166 16 31 1773 117816 13227 169 382383 28% 8 42082 27%
c
c  seconds     switched    conflicts       irredundant   variables
c          MB    reductions       redundant         trail     remaining
c            level    restarts          binary         glue
c
c s 353.77 59 166 16 31 1773 117816 13227 178 381775 28% 8 42082 27%
c e 353.80 59 166 16 31 1773 117816 13227 176 381773 28% 8 42081 27%
c ^ 353.80 59 166 16 31 1773 117816 13227 176 381773 28% 8 42081 27%
c - 353.95 61 166 16 32 1773 118659 6558 317 381688 27% 8 42081 27%
c i 358.20 61 162 16 32 1780 120935 8740 326 381688 27% 8 42073 27%
c - 362.32 61 164 16 33 1800 124316 8767 307 381687 25% 8 42073 27%
c i 362.39 61 164 16 33 1800 124330 8776 311 381687 25% 8 42072 27%
c i 364.07 61 162 16 33 1812 125676 10046 321 381687 25% 8 42062 26%
c i 364.95 61 162 16 33 1812 125884 10241 327 381687 25% 8 42057 26%
c i 365.18 61 161 16 33 1812 125929 10284 328 381687 25% 8 41987 26%
c i 365.29 61 161 16 33 1812 125951 10300 333 381687 25% 8 41959 26%
c i 365.51 61 162 16 33 1874 126466 10723 343 381687 25% 8 41958 26%
c i 365.55 61 162 16 33 1874 126492 10742 347 381687 25% 8 41917 26%
c i 365.58 61 162 16 33 1874 126502 10747 351 381687 25% 8 41916 26%
c i 365.58 61 162 16 33 1874 126506 10749 352 381687 25% 8 41915 26%
c i 365.64 61 164 16 33 2005 127168 11268 353 381687 24% 8 41796 26%
c i 365.64 61 164 16 33 2005 127172 11270 354 381687 24% 8 41794 26%
c } 365.66 61 164 16 33 2005 127175 11270 355 381687 24% 8 26447 17%
c 0 365.66 61 164 16 33 2005 127175 11270 355 381687 24% 8 26447 17%
c
c ---- [ result ] ------------------------------------------------------------
c
s UNSATISFIABLE
c
c ---- [ profiling ] ---------------------------------------------------------
c
c         356.35   97.45 %  search
c         192.99   52.78 %  focused
c         163.36   44.67 %  stable
c           9.19    2.51 %  simplify
c           4.25    1.16 %  probe
c           3.01    0.82 %  walking
c           2.62    0.72 %  vivify
c           1.93    0.53 %  eliminate
c           1.06    0.29 %  sweep
c           0.42    0.12 %  substitute
c           0.27    0.07 %  reduce
c           0.27    0.07 %  subsume
c           0.12    0.03 %  parse
c           0.09    0.02 %  transitive
c           0.05    0.01 %  backbone
c           0.03    0.01 %  warmup
c =============================================
c         365.66  100.00 %  total
c
c ---- [ statistics ] --------------------------------------------------------
c
c chronological:                         1074                1 %  conflicts
c conflicts:                           127175              347.79 per second
c decisions:                           518410                4.08 per conflict
c eliminated:                           53614               34 %  variables
c jumped_reasons:                      144470                0 %  propagations
c propagations:                    1384297569          3785740    per second
c queue_decisions:                     158175               31 %  decision
c random_decisions:                    223150               43 %  decision
c random_sequences:                        42             3028    interval
c reductions:                              33             3854    interval
c rephased:                                11            11561    interval
c restarts:                              2005               63.43 interval
c score_decisions:                     137085               26 %  decision
c strengthened:                          8882                0 %  checks
c substituted:                           1038                1 %  variables
c subsumed:                              2148                0 %  checks
c switched:                                16             7948    interval
c vivified:                             13708                1 %  checks
c vivify_checks:                      1934221           241778    per vivify
c vivify_units:                            17                0 %  variables
c walk_improved:                            4              100 %  walks
c walks:                                    4            31794    interval
c
c ---- [ resources ] ---------------------------------------------------------
c
c maximum-resident-set-size:         64049152 bytes         61 MB
c process-time:                          6m 6s             365.66 seconds
c
c ---- [ shutting down ] -----------------------------------------------------
c
c exit 20
